0 1464
1 1461
2 1446
3 1363
4 1343
5 1343
6 1343
7 1342
8 1320
9 1280
10 1280
11 1260
12 1260
13 1248
14 1240
15 1235
16 1205
17 1196
18 1159
19 1159
20 1159
21 1159
22 1142
23 1137
24 1115
25 1115
26 1103
27 1061
28 1057
29 1057
30 1039
31 1039
32 1039
33 1027
34 1026
35 1016
36 1016
37 1016
38 1015
39 1000
40 1000
41 1000
42 999
43 999
44 999
45 999
46 999
47 999
48 999
49 998
50 998
51 998
52 998
53 998
54 998
55 998
56 998
57 998
58 998
59 998
60 998
61 998
62 998
63 998
64 998
65 998
66 998
67 998
68 998
69 998
70 998
71 998
72 998
73 998
74 998
75 998
76 998
77 998
78 998
79 998
80 998
81 998
82 998
83 998
84 998
85 998
86 998
87 998
88 998
89 998
90 998
91 998
92 998
93 998
94 998
95 998
96 998
97 998
98 998
99 998
100 998
101 998
102 998
103 998
104 998
105 998
106 998
107 998
108 998
109 998
110 998
111 998
112 998
113 998
114 998
115 998
116 998
117 998
118 998
119 998
120 998
121 998
122 998
123 998
124 998
125 998
126 998
127 998
128 998
129 998
130 998
131 998
132 998
133 998
134 998
135 998
136 998
137 998
138 998
139 998
140 998
141 998
142 998
143 998
144 998
145 998
146 998
147 998
148 998
149 998
150 998
151 998
152 998
153 998
154 998
155 998
156 998
157 998
158 998
159 998
160 998
161 998
162 998
163 998
164 998
165 998
166 998
167 998
168 998
169 998
170 998
171 998
172 998
173 998
174 998
175 998
176 998
177 998
178 998
179 998
180 998
181 998
182 998
183 998
184 998
185 998
186 998
187 998
188 998
189 998
190 998
191 998
192 998
193 998
194 998
195 998
196 998
197 998
198 998
199 998
200 998
201 998
202 998
203 998
204 998
205 998
206 998
207 998
208 998
209 998
210 998
211 998
212 998
213 998
214 998
215 998
216 998
217 998
218 998
219 998
220 998
221 998
222 998
223 998
224 998
225 998
226 998
227 998
228 998
229 998
230 998
231 998
232 998
233 998
234 998
235 998
236 998
237 998
238 998
239 998
240 998
241 998
242 998
243 998
244 998
245 998
246 998
247 998
248 998
249 998
250 998
251 998
252 998
253 998
254 998
255 998
256 998
257 998
258 998
259 998
260 998
261 998
262 998
263 998
264 998
265 998
266 998
267 998
268 998
269 998
270 998
271 998
272 998
273 998
274 998
275 998
276 998
277 998
278 998
279 998
280 998
281 998
282 998
283 998
284 998
285 998
286 998
287 998
288 998
289 998
290 998
291 998
292 998
293 998
294 998
295 998
296 998
297 998
298 998
299 998
300 998
301 998
302 998
303 998
304 998
305 998
306 998
307 998
308 998
309 998
310 998
311 998
312 998
313 998
314 998
315 998
316 998
317 998
318 998
319 998
320 998
321 998
322 998
323 998
324 998
325 998
326 998
327 998
328 998
329 998
330 998
331 998
332 998
333 998
334 998
335 998
336 998
337 998
338 998
339 998
340 998
341 998
342 998
343 998
344 998
345 998
346 998
347 998
348 998
349 998
350 998
351 998
352 998
353 998
354 998
355 998
356 998
357 998
358 998
359 998
360 998
361 998
362 998
363 998
364 998
365 998
366 998
367 998
368 998
369 998
370 998
371 998
372 998
373 998
374 998
375 998
376 998
377 998
378 998
379 998
380 998
381 998
382 998
383 998
384 998
385 998
386 998
387 998
388 998
389 998
390 998
391 998
392 998
393 998
394 998
395 998
396 998
397 998
398 998
399 998
400 998
401 998
402 998
403 998
404 998
405 998
406 998
407 998
408 998
409 998
410 998
411 998
412 998
413 998
414 998
415 998
416 998
417 998
418 998
419 998
420 998
421 998
422 998
423 998
424 998
425 998
426 998
427 998
428 998
429 998
430 998
431 998
432 998
433 998
434 998
435 998
436 998
437 998
438 998
439 998
440 998
441 998
442 998
443 998
444 998
445 998
446 998
447 998
448 998
449 998
450 998
451 998
452 998
453 998
454 998
455 998
456 998
457 998
458 998
459 998
460 998
461 998
462 998
463 998
464 998
465 998
466 998
467 998
468 998
469 998
470 998
471 998
472 998
473 998
474 998
475 998
476 998
477 998
478 998
479 998
480 998
481 998
482 998
483 998
484 998
485 998
486 998
487 998
488 998
489 998
490 998
491 998
492 998
493 998
494 998
495 998
496 998
497 998
498 998
499 998
500 998
501 998
502 998
503 998
504 998
505 998
506 998
507 998
508 998
509 998
510 998
511 998
512 998
513 998
514 998
515 998
516 998
517 998
518 998
519 998
520 998
521 998
522 998
523 998
524 998
525 998
526 998
527 998
528 998
529 998
530 998
531 998
532 998
533 998
534 998
535 998
536 998
537 998
538 998
539 998
540 998
541 998
542 998
543 998
544 998
545 998
546 998
547 998
548 998
549 998
550 998
551 998
552 998
553 998
554 998
555 998
556 998
557 998
558 998
559 998
560 998
561 998
562 998
563 998
564 998
565 998
566 998
567 998
568 998
569 998
570 998
571 998
572 998
573 998
574 998
575 998
576 998
577 998
578 998
579 998
580 998
581 998
582 998
583 998
584 998
585 998
586 998
587 998
588 998
589 998
590 998
591 998
592 998
593 998
594 998
595 998
596 998
597 998
598 998
599 998
600 998
601 998
602 998
603 998
604 998
605 998
606 998
607 998
608 998
609 998
610 998
611 998
612 998
613 998
614 998
615 998
616 998
617 998
618 998
619 998
620 998
621 998
622 998
623 998
624 998
625 998
626 998
627 998
628 998
629 998
630 998
631 998
632 998
633 998
634 998
635 998
636 998
637 998
638 998
639 998
640 998
641 998
642 998
643 998
644 998
645 998
646 998
647 998
648 998
649 998
650 998
651 998
652 998
653 998
654 998
655 998
656 998
657 998
658 998
659 998
660 998
661 998
662 998
663 998
664 998
665 998
666 998
667 998
668 998
669 998
670 998
671 998
672 998
673 998
674 998
675 998
676 998
677 998
678 998
679 998
680 998
681 998
682 998
683 998
684 998
685 998
686 998
687 998
688 998
689 998
690 998
691 998
692 998
693 998
694 998
695 998
696 998
697 998
698 998
699 998
700 998
701 998
702 998
703 998
704 998
705 998
706 998
707 998
708 998
709 998
710 998
711 998
712 998
713 998
714 998
715 998
716 998
717 998
718 998
719 998
720 998
721 998
722 998
723 998
724 998
725 998
726 998
727 998
728 998
729 998
730 998
731 998
732 998
733 998
734 998
735 998
736 998
737 998
738 998
739 998
740 998
741 998
742 998
743 998
744 998
745 998
746 998
747 998
748 998
749 998
750 998
751 998
752 998
753 998
754 998
755 998
756 998
757 998
758 998
759 998
760 998
761 998
762 998
763 998
764 998
765 998
766 998
767 998
768 998
769 998
770 998
771 998
772 998
773 998
774 998
775 998
776 998
777 998
778 998
779 998
780 998
781 998
782 998
783 998
784 998
785 998
786 998
787 998
788 998
789 998
790 998
791 998
792 998
793 998
794 998
795 998
796 998
797 998
798 998
799 998
800 998
801 998
802 998
803 998
804 998
805 998
806 998
807 998
808 998
809 998
810 998
811 998
812 998
813 998
814 998
815 998
816 998
817 998
818 998
819 998
820 998
821 998
822 998
823 998
824 998
825 998
826 998
827 998
828 998
829 998
830 998
831 998
832 998
833 998
834 998
835 998
836 998
837 998
838 998
839 998
840 998
841 998
842 998
843 998
844 998
845 998
846 998
847 998
848 998
849 998
850 998
851 998
852 998
853 998
854 998
855 998
856 998
857 998
858 998
859 998
860 998
861 998
862 998
863 998
864 998
865 998
866 998
867 998
868 998
869 998
870 998
871 998
872 998
873 998
874 998
875 998
876 998
877 998
878 998
879 998
880 998
881 998
882 998
883 998
884 998
885 998
886 998
887 998
888 998
889 998
890 998
891 998
892 998
893 998
894 998
895 998
896 998
897 998
898 998
899 998
900 998
901 998
902 998
903 998
904 998
905 998
906 998
907 998
908 998
909 998
910 998
911 998
912 998
913 998
914 998
915 998
916 998
917 998
918 998
919 998
920 998
921 998
922 998
923 998
924 998
925 998
926 998
927 998
928 998
929 998
930 998
931 998
932 998
933 998
934 998
935 998
936 998
937 998
938 998
939 998
940 998
941 998
942 998
943 998
944 998
945 998
946 998
947 998
948 998
949 998
950 998
951 998
952 998
953 998
954 998
955 998
956 998
957 998
958 998
959 998
960 998
961 998
962 998
963 998
964 998
965 998
966 998
967 998
968 998
969 998
970 998
971 998
972 998
973 998
974 998
975 998
976 998
977 998
978 998
979 998
980 998
981 998
982 998
983 998
984 998
985 998
986 998
987 998
988 998
989 998
990 998
991 998
992 998
993 998
994 998
995 998
996 998
997 998
998 998
999 998
